     Program PWSCF v.7.4 starts on  4Sep2025 at 11:26:50

     Reading input from qe_relax_pwscf5_2.in

     Current dimensions of program PWSCF are:
     Max number of different atomic species (ntypx) = 10
     Max number of k-points (npk) =  40000
     Max angular momentum in pseudopotentials (lmaxx) =  4
     Message from routine setup:
     using ibrav=0 with symmetry is DISCOURAGED, use correct ibrav instead

     Subspace diagonalization in iterative solution of the eigenvalue problem:
     a serial algorithm will be used

     Using Slab Decomposition

     bravais-lattice index     =            0
     lattice parameter (alat)  =       4.7169  a.u.
     unit-cell volume          =    1274.4265 (a.u.)^3
     number of atoms/cell      =           16
     number of atomic types    =            3
     number of electrons       =       204.00
     number of Kohn-Sham states=          122
     kinetic-energy cutoff     =      60.0000  Ry
     charge density cutoff     =     480.0000  Ry
     scf convergence threshold =      3.0E-08
     mixing beta               =       0.1500
     number of iterations used =           12  local-TF  mixing
     energy convergence thresh.=      1.6E-04
     force convergence thresh. =      1.5E-03
     Exchange-correlation= SLA  PW   PSX  PSC
                           (   1   4  10   8   0   0   0)
     nstep                     =           50

     celldm(1)=   4.716921  celldm(2)=   0.000000  celldm(3)=   0.000000
     celldm(4)=   0.000000  celldm(5)=   0.000000  celldm(6)=   0.000000

     crystal axes: (cart. coord. in units of alat)
               a(1) = (   1.000000   0.000000   0.000000 )
               a(2) = (  -0.500000   0.866026   0.000000 )
               a(3) = (   0.000000   0.000000  14.021947 )

     reciprocal axes: (cart. coord. in units 2 pi/alat)
               b(1) = (  1.000000  0.577350  0.000000 )
               b(2) = (  0.000000  1.154700  0.000000 )
               b(3) = (  0.000000  0.000000  0.071317 )

     PseudoPot. # 1 for B  read from file:
     ./pseudo/b_pbesol_v1.4.uspp.F.UPF
     MD5 check sum: 369b69bef2c3aeed4453bd8b804fd6a8
     Pseudo is Ultrasoft + core correction, Zval =  3.0
     Generated by new atomic code, or converted to UPF format
     Using radial grid of  781 points,  4 beta functions with:
                l(1) =   0
                l(2) =   0
                l(3) =   1
                l(4) =   1
     Q(r) pseudized with  8 coefficients,  rinner =    1.100   1.100   1.100

     PseudoPot. # 2 for N  read from file:
     ./pseudo/N.pbesol-theos.UPF
     MD5 check sum: 1b64827339d390a5a22afef3ff345c9d
     Pseudo is Ultrasoft + core correction, Zval =  5.0
     Generated using "atomic" code by A. Dal Corso  v.5.1
     Using radial grid of 1085 points,  4 beta functions with:
                l(1) =   0
                l(2) =   0
                l(3) =   1
                l(4) =   1
     Q(r) pseudized with 0 coefficients

     PseudoPot. # 3 for Ni read from file:
     ./pseudo/ni_pbesol_v1.4.uspp.F.UPF
     MD5 check sum: de937c0c8ae4b350e69c02b76d8a83cb
     Pseudo is Ultrasoft + core correction, Zval = 18.0
     Generated by new atomic code, or converted to UPF format
     Using radial grid of  865 points,  6 beta functions with:
                l(1) =   0
                l(2) =   0
                l(3) =   1
                l(4) =   1
                l(5) =   2
                l(6) =   2
     Q(r) pseudized with 10 coefficients,  rinner =    0.980   0.980   0.980
                                                       0.980   0.980

     atomic species   valence    mass     pseudopotential
     B                 3.00    10.81100     B ( 1.00)
     N                 5.00    14.00670     N ( 1.00)
     Ni               18.00    58.69340     Ni( 1.00)

     Starting magnetic structure
     atomic species   magnetization
     B               0.000
     N               0.000
     Ni              0.300

     12 Sym. Ops. (no inversion) found

                                    s                        frac. trans.

      isym =  1     identity

 cryst.   s( 1) = (     1          0          0      )
                  (     0          1          0      )
                  (     0          0          1      )

 cart.    s( 1) = (  1.0000000  0.0000000  0.0000000 )
                  (  0.0000000  1.0000000  0.0000000 )
                  (  0.0000000  0.0000000  1.0000000 )

      isym =  2     180 deg rotation - cart. axis [0,1,0]

[...]

      isym =  3     120 deg rotation - cryst. axis [0,0,1]

[...]

      isym =  6     180 deg rotation - cryst. axis [2,1,0]

[...]

      isym =  7     inv. 180 deg rotation - cart. axis [0,0,1]

[...]

      isym =  8     inv. 180 deg rotation - cart. axis [1,0,0]

[...]

      isym =  9     inv.  60 deg rotation - cryst. axis [0,0,1]

 cryst.   s( 9) = (    -1         -1          0      )
                  (     1          0          0      )
                  (     0          0         -1      )

 cart.    s( 9) = ( -0.5000002  0.8660253  0.0000000 )
                  ( -0.8660255 -0.4999998  0.0000000 )
                  (  0.0000000  0.0000000 -1.0000000 )

[...]

 cryst.   s(10) = (     0          1          0      )
                  (    -1         -1          0      )
                  (     0          0         -1      )

 cart.    s(10) = ( -0.4999998 -0.8660253  0.0000000 )
                  (  0.8660255 -0.5000002  0.0000000 )
                  (  0.0000000  0.0000000 -1.0000000 )

[...]

      isym = 12     inv. 180 deg rotation - cryst. axis [1,1,0]

 cryst.   s(12) = (     0         -1          0      )
                  (    -1          0          0      )
                  (     0          0          1      )

 cart.    s(12) = (  0.4999998 -0.8660255  0.0000000 )
                  ( -0.8660255 -0.4999998  0.0000000 )
                  (  0.0000000  0.0000000  1.0000000 )

   Cartesian axes

     site n.     atom                  positions (alat units)
         1        B      tau(   1) = (   0.0000000   0.0000000   8.2649415  )
         2        B      tau(   2) = (   0.0000000   0.0000000   7.0109717  )
         3        B      tau(   3) = (   0.0000000   0.0000000   5.7570123  )
         4        N      tau(   4) = (  -0.0000004   0.5773506   8.2649415  )
         5        N      tau(   5) = (  -0.0000004   0.5773506   7.0109717  )
         6        N      tau(   6) = (  -0.0000004   0.5773506   5.7570123  )
         7        Ni     tau(   7) = (   0.0000000   0.0000000   1.6697392  )
         8        Ni     tau(   8) = (  -0.0000004   0.5773506   2.4862373  )
         9        Ni     tau(   9) = (   0.5000006   0.2886749   3.3027352  )
        10        Ni     tau(  10) = (   0.0000000   0.0000000   4.1192329  )
        11        Ni     tau(  11) = (  -0.0000004   0.5773506   4.9357190  )
        12        Ni     tau(  12) = (   0.0000000   0.0000000  12.3522074  )
        13        Ni     tau(  13) = (  -0.0000004   0.5773506  11.5357088  )
        14        Ni     tau(  14) = (   0.5000006   0.2886749  10.7192111  )
        15        Ni     tau(  15) = (   0.0000000   0.0000000   9.9027134  )
        16        Ni     tau(  16) = (  -0.0000004   0.5773506   9.0862274  )

   Crystallographic axes

     site n.     atom                  positions (cryst. coord.)
         1        B      tau(   1) = (  0.0000000  0.0000000  0.5894290  )
         2        B      tau(   2) = (  0.0000000  0.0000000  0.4999999  )
         3        B      tau(   3) = (  0.0000000  0.0000000  0.4105715  )
         4        N      tau(   4) = (  0.3333330  0.6666670  0.5894290  )
         5        N      tau(   5) = (  0.3333330  0.6666670  0.4999999  )
         6        N      tau(   6) = (  0.3333330  0.6666670  0.4105715  )
         7        Ni     tau(   7) = (  0.0000000  0.0000000  0.1190804  )
         8        Ni     tau(   8) = (  0.3333330  0.6666670  0.1773104  )
         9        Ni     tau(   9) = (  0.6666670  0.3333330  0.2355404  )
        10        Ni     tau(  10) = (  0.0000000  0.0000000  0.2937704  )
        11        Ni     tau(  11) = (  0.3333330  0.6666670  0.3519996  )
        12        Ni     tau(  12) = (  0.0000000  0.0000000  0.8809196  )
        13        Ni     tau(  13) = (  0.3333330  0.6666670  0.8226895  )
        14        Ni     tau(  14) = (  0.6666670  0.3333330  0.7644596  )
        15        Ni     tau(  15) = (  0.0000000  0.0000000  0.7062296  )
        16        Ni     tau(  16) = (  0.3333330  0.6666670  0.6480004  )

     number of k points=    44  Marzari-Vanderbilt smearing, width (Ry)=  0.0300
                       cart. coord. in units 2pi/alat
        k(    1) = (   0.0000000   0.0000000   0.0000000), wk =   0.0025000
        k(    2) = (   0.0000000   0.0577350   0.0000000), wk =   0.0150000
        k(    3) = (   0.0000000   0.1154700   0.0000000), wk =   0.0150000
        k(    4) = (   0.0000000   0.1732051   0.0000000), wk =   0.0150000
        k(    5) = (   0.0000000   0.2309401   0.0000000), wk =   0.0150000
        k(    6) = (   0.0000000   0.2886751   0.0000000), wk =   0.0150000
        k(    7) = (   0.0000000   0.3464101   0.0000000), wk =   0.0150000
        k(    8) = (   0.0000000   0.4041451   0.0000000), wk =   0.0150000
        k(    9) = (   0.0000000   0.4618801   0.0000000), wk =   0.0150000
        k(   10) = (   0.0000000   0.5196152   0.0000000), wk =   0.0150000
        k(   11) = (   0.0000000  -0.5773502   0.0000000), wk =   0.0075000
        k(   12) = (   0.0500000   0.0866025   0.0000000), wk =   0.0150000
        k(   13) = (   0.0500000   0.1443375   0.0000000), wk =   0.0300000
        k(   14) = (   0.0500000   0.2020725   0.0000000), wk =   0.0300000
        k(   15) = (   0.0500000   0.2598076   0.0000000), wk =   0.0300000
        k(   16) = (   0.0500000   0.3175426   0.0000000), wk =   0.0300000
        k(   17) = (   0.0500000   0.3752776   0.0000000), wk =   0.0300000
        k(   18) = (   0.0500000   0.4330126   0.0000000), wk =   0.0300000
        k(   19) = (   0.0500000   0.4907476   0.0000000), wk =   0.0300000
        k(   20) = (   0.0500000   0.5484827   0.0000000), wk =   0.0300000
        k(   21) = (   0.1000000   0.1732050   0.0000000), wk =   0.0150000
        k(   22) = (   0.1000000   0.2309400   0.0000000), wk =   0.0300000
        k(   23) = (   0.1000000   0.2886751   0.0000000), wk =   0.0300000
        k(   24) = (   0.1000000   0.3464101   0.0000000), wk =   0.0300000
        k(   25) = (   0.1000000   0.4041451   0.0000000), wk =   0.0300000
        k(   26) = (   0.1000000   0.4618801   0.0000000), wk =   0.0300000
        k(   27) = (   0.1000000   0.5196151   0.0000000), wk =   0.0300000
        k(   28) = (   0.1000000   0.5773502   0.0000000), wk =   0.0150000
        k(   29) = (   0.1500000   0.2598075   0.0000000), wk =   0.0150000
        k(   30) = (   0.1500000   0.3175426   0.0000000), wk =   0.0300000
        k(   31) = (   0.1500000   0.3752776   0.0000000), wk =   0.0300000
        k(   32) = (   0.1500000   0.4330126   0.0000000), wk =   0.0300000
        k(   33) = (   0.1500000   0.4907476   0.0000000), wk =   0.0300000
[...]

     End of self-consistent calculation

 ------ SPIN UP ------------

[...]

 ------ SPIN DOWN ----------

[...]

          k = 0.3000 0.5774 0.0000 (  9978 PWs)   bands (ev):

   -91.9014 -91.9004 -91.8351 -91.8348 -91.0253 -91.0221 -91.0003 -90.9978
   -90.9804 -90.9786 -52.4948 -52.4941 -52.4893 -52.4885 -52.4764 -52.4755
   -52.4324 -52.4319 -52.4021 -52.4015 -52.2764 -52.2761 -51.6756 -51.6726
   -51.6645 -51.6617 -51.6400 -51.6373 -51.6082 -51.6056 -51.5970 -51.5945
   -51.5853 -51.5830 -51.5481 -51.5459 -51.5353 -51.5332 -51.5308 -51.5286
    -5.5944  -5.5914  -4.7559   0.4423   0.4475   1.1379   1.3922   1.4003
     2.1654   7.2022   7.2523   7.7528   7.7535   7.8453   7.8461   7.9889
     7.9900   8.0947   8.0965   8.1266   8.1280   8.1733   8.1754   8.2605
     8.2630   8.3551   8.3573   8.6958   8.7050   8.8588   8.8887   9.0234
     9.0290   9.0435   9.0899   9.2238   9.2440   9.2447   9.2500   9.2911
     9.3182   9.3479   9.5309   9.5338  10.2176  10.2183  10.3693  10.3704
    10.6240  10.6249  10.7163  10.7187  10.7991  10.8011  10.9864  10.9880
    11.4628  11.4648  11.5445  11.5469  11.8201  11.8337  13.2083  13.6265
    14.2802  15.8240  15.8254  15.9754  15.9772  16.3441  16.3471  16.8693
    16.8743  17.4103  17.4112  18.2040  18.2753  18.3848  18.3937  18.7428
    18.7740  19.0912

     occupation numbers
     1.0000   1.0000   1.0000   1.0000   1.0000   1.0000   1.0000   1.0000
     1.0000   1.0000   1.0000   1.0000   1.0000   1.0000   1.0000   1.0000
     1.0000   1.0000   1.0000   1.0000   1.0000   1.0000   1.0000   1.0000
     1.0000   1.0000   1.0000   1.0000   1.0000   1.0000   1.0000   1.0000
     1.0000   1.0000   1.0000   1.0000   1.0000   1.0000   1.0000   1.0000
     1.0000   1.0000   1.0000   1.0000   1.0000   1.0000   1.0000   1.0000
     1.0000   1.0000   1.0000   1.0000   1.0000   1.0000   1.0000   1.0000
     1.0000   1.0000   1.0000   1.0000   1.0000   1.0000   1.0000   1.0000
     1.0000   1.0000   1.0000   1.0000   1.0000   1.0000   1.0000   1.0000
     1.0000   1.0000   1.0000   1.0000   1.0000   1.0000   1.0000   1.0000
     1.0000   1.0000   1.0000   1.0000   1.0005   1.0005   1.0027   1.0027
     1.0233   1.0234   1.0405   1.0410   1.0592   1.0596   1.0822   1.0820
     0.5302   0.5266   0.3869   0.3830   0.0795   0.0719   0.0000   0.0000
     0.0000   0.0000   0.0000   0.0000   0.0000   0.0000   0.0000   0.0000
     0.0000   0.0000   0.0000   0.0000   0.0000   0.0000   0.0000   0.0000
     0.0000   0.0000

     the Fermi energy is    11.5363 ev

!    total energy              =   -3510.74033839 Ry
     estimated scf accuracy    <          1.1E-10 Ry
     smearing contrib. (-TS)   =       0.01503387 Ry
     internal energy E=F+TS    =   -3510.75537225 Ry

     The total energy is F=E-TS. E is the sum of the following terms:
     one-electron contribution =  -10661.89058310 Ry
     hartree contribution      =    5420.52324815 Ry
     xc contribution           =    -377.44958548 Ry
     ewald contribution        =    2108.06154818 Ry

     total magnetization       =     0.72 Bohr mag/cell
     absolute magnetization    =     7.50 Bohr mag/cell

     convergence has been achieved in  29 iterations

     negative rho (up, down):  5.377E-06 1.589E-05

     Forces acting on atoms (cartesian axes, Ry/au):

     atom    1 type  1   force =     0.00000000    0.00000000    0.00041614
     atom    2 type  1   force =     0.00000000    0.00000000    0.00000000
     atom    3 type  1   force =     0.00000000   -0.00000000   -0.00041614
     atom    4 type  2   force =     0.00000000    0.00000000    0.00025098
     atom    5 type  2   force =     0.00000000    0.00000000    0.00000000
     atom    6 type  2   force =    -0.00000000    0.00000000   -0.00025098
     atom    7 type  3   force =     0.00000000    0.00000000   -0.00058282
     atom    8 type  3   force =     0.00000000   -0.00000000   -0.00096053
     atom    9 type  3   force =     0.00000000    0.00000000   -0.00084157
     atom   10 type  3   force =    -0.00000000   -0.00000000   -0.00082410
     atom   11 type  3   force =    -0.00000000   -0.00000000   -0.00049348
     atom   12 type  3   force =    -0.00000000   -0.00000000    0.00058282
     atom   13 type  3   force =     0.00000000   -0.00000000    0.00096053
     atom   14 type  3   force =     0.00000000   -0.00000000    0.00084157
     atom   15 type  3   force =     0.00000000    0.00000000    0.00082410
     atom   16 type  3   force =     0.00000000    0.00000000    0.00049348
     The non-local contrib.  to forces
     atom    1 type  1   force =     0.00000000    0.00000000    0.09330475
     atom    2 type  1   force =     0.00000000   -0.00000000    0.00000000
     atom    3 type  1   force =    -0.00000000   -0.00000000   -0.09330475
     atom    4 type  2   force =     0.00000000   -0.00000000    0.51923924
     atom    5 type  2   force =    -0.00000000    0.00000000    0.00000000
     atom    6 type  2   force =     0.00000000    0.00000000   -0.51923924
     atom    7 type  3   force =     0.00000000   -0.00000000   -0.23576652
     atom    8 type  3   force =     0.00000000   -0.00000000   -0.01807187
     atom    9 type  3   force =     0.00000000   -0.00000000    0.01236510
     atom   10 type  3   force =     0.00000000    0.00000000   -0.01613762
     atom   11 type  3   force =     0.00000000   -0.00000000    0.34296769
     atom   12 type  3   force =     0.00000000   -0.00000000    0.23576652
     atom   13 type  3   force =     0.00000000   -0.00000000    0.01807187
     atom   14 type  3   force =    -0.00000000    0.00000000   -0.01236510
     atom   15 type  3   force =     0.00000000    0.00000000    0.01613762
     atom   16 type  3   force =    -0.00000000    0.00000000   -0.34296769
     The ionic contribution  to forces
     atom    1 type  1   force =    -0.00001072    0.00000590  -43.68213188
     atom    2 type  1   force =    -0.00001000    0.00000550    0.00009676
     atom    3 type  1   force =    -0.00001072    0.00000590   43.68174999
     atom    4 type  2   force =     0.00000978   -0.00000538  -73.69955891
     atom    5 type  2   force =     0.00001000   -0.00000550    0.00016178
     atom    6 type  2   force =     0.00000978   -0.00000538   73.69884060
     atom    7 type  3   force =    -0.00000575    0.00000318 -381.36080858
     atom    8 type  3   force =     0.00001095   -0.00000618 -225.84352774
     atom    9 type  3   force =    -0.00001051    0.00000620  -75.69439779
     atom   10 type  3   force =    -0.00000008   -0.00000021   79.10056878
     atom   11 type  3   force =     0.00000633   -0.00000350  231.01221705
     atom   12 type  3   force =    -0.00000575    0.00000318  381.36090622
     atom   13 type  3   force =     0.00001095   -0.00000618  225.84375203
     atom   14 type  3   force =    -0.00001051    0.00000620   75.69456292
     atom   15 type  3   force =    -0.00000008   -0.00000021  -79.10040636
     atom   16 type  3   force =     0.00000633   -0.00000350 -231.01202487
     The local contribution  to forces
     atom    1 type  1   force =     0.00000143   -0.00000083   43.59401185
     atom    2 type  1   force =     0.00000123   -0.00000071   -0.00000511
     atom    3 type  1   force =     0.00000143   -0.00000083  -43.59399858
     atom    4 type  2   force =     0.00004191   -0.00002275   73.18327432
     atom    5 type  2   force =     0.00004043   -0.00002194    0.00011240
     atom    6 type  2   force =     0.00004191   -0.00002275  -73.18371280
     atom    7 type  3   force =     0.00000142   -0.00000082  381.59552131
     atom    8 type  3   force =     0.00106645   -0.00057937  225.86144020
     atom    9 type  3   force =    -0.00103498    0.00063426   75.68212150
     atom   10 type  3   force =    -0.00000000    0.00000000  -79.08487378
     atom   11 type  3   force =     0.00106983   -0.00058116 -231.35625974
     atom   12 type  3   force =     0.00000142   -0.00000082 -381.59504582
     atom   13 type  3   force =     0.00106645   -0.00057937 -225.86000455
     atom   14 type  3   force =    -0.00103498    0.00063426  -75.68116495
     atom   15 type  3   force =    -0.00000000    0.00000000   79.08583100
     atom   16 type  3   force =     0.00106983   -0.00058116  231.35721121
     The core correction contribution to forces
     atom    1 type  1   force =     0.00000001   -0.00000000   -0.00495326
     atom    2 type  1   force =     0.00000001   -0.00000000    0.00000072
     atom    3 type  1   force =     0.00000001   -0.00000000    0.00495104
     atom    4 type  2   force =    -0.00000012    0.00000007   -0.00328048
     atom    5 type  2   force =    -0.00000011    0.00000006   -0.00000012
     atom    6 type  2   force =    -0.00000012    0.00000007    0.00328078
     atom    7 type  3   force =     0.00000000   -0.00000000    0.00074333
     atom    8 type  3   force =     0.00000319   -0.00000173    0.00000769
     atom    9 type  3   force =    -0.00000309    0.00000190   -0.00037694
     atom   10 type  3   force =    -0.00000000    0.00000000    0.00018052
     atom   11 type  3   force =     0.00000320   -0.00000174    0.00116270
     atom   12 type  3   force =     0.00000000   -0.00000000   -0.00074203
     atom   13 type  3   force =     0.00000319   -0.00000173   -0.00000374
     atom   14 type  3   force =    -0.00000309    0.00000190    0.00037957
     atom   15 type  3   force =    -0.00000000    0.00000000   -0.00017787
     atom   16 type  3   force =     0.00000320   -0.00000174   -0.00116008
     The Hubbard contrib.    to forces
     atom    1 type  1   force =     0.00000000    0.00000000    0.00000000
     atom    2 type  1   force =     0.00000000    0.00000000    0.00000000
     atom    3 type  1   force =     0.00000000    0.00000000    0.00000000
     atom    4 type  2   force =     0.00000000    0.00000000    0.00000000
     atom    5 type  2   force =     0.00000000    0.00000000    0.00000000
     atom    6 type  2   force =     0.00000000    0.00000000    0.00000000
     atom    7 type  3   force =     0.00000000    0.00000000    0.00000000
     atom    8 type  3   force =     0.00000000    0.00000000    0.00000000
     atom    9 type  3   force =     0.00000000    0.00000000    0.00000000
     atom   10 type  3   force =     0.00000000    0.00000000    0.00000000
     atom   11 type  3   force =     0.00000000    0.00000000    0.00000000
     atom   12 type  3   force =     0.00000000    0.00000000    0.00000000
     atom   13 type  3   force =     0.00000000    0.00000000    0.00000000
     atom   14 type  3   force =     0.00000000    0.00000000    0.00000000
     atom   15 type  3   force =     0.00000000    0.00000000    0.00000000
     atom   16 type  3   force =     0.00000000    0.00000000    0.00000000
     The SCF correction term to forces
     atom    1 type  1   force =    -0.00000000   -0.00000000   -0.00000074
     atom    2 type  1   force =     0.00000000    0.00000000   -0.00000000
     atom    3 type  1   force =    -0.00000000    0.00000000    0.00000074
     atom    4 type  2   force =     0.00000000   -0.00000000   -0.00000143
     atom    5 type  2   force =    -0.00000000    0.00000000   -0.00000001
     atom    6 type  2   force =     0.00000000   -0.00000000    0.00000143
     atom    7 type  3   force =     0.00000000   -0.00000000    0.00001483
     atom    8 type  3   force =    -0.00000000    0.00000000    0.00002313
     atom    9 type  3   force =     0.00000000   -0.00000000    0.00000874
     atom   10 type  3   force =     0.00000000   -0.00000000   -0.00000081
     atom   11 type  3   force =     0.00000000   -0.00000000   -0.00000801
     atom   12 type  3   force =    -0.00000000   -0.00000000   -0.00001487
     atom   13 type  3   force =    -0.00000000    0.00000000   -0.00002315
     atom   14 type  3   force =     0.00000000   -0.00000000   -0.00000871
     atom   15 type  3   force =     0.00000000   -0.00000000    0.00000089
     atom   16 type  3   force =     0.00000000   -0.00000000    0.00000809

     Total force =     0.002502     Total SCF correction =     0.000042

     Computing stress (Cartesian axis) and pressure

     negative rho (up, down):  5.377E-06 1.589E-05
          total   stress  (Ry/bohr**3)                   (kbar)     P=       -3.64
  -0.00008660   0.00000000   0.00000000          -12.74        0.00        0.00
   0.00000000  -0.00008660   0.00000000            0.00      -12.74        0.00
   0.00000000  -0.00000000   0.00009894            0.00       -0.00       14.55

     kinetic stress (kbar)  39343.85     -0.01      0.00
                               -0.01  39343.84      0.00
                               -0.00     -0.00  39618.36

     local   stress (kbar)**********     -0.00     -0.00
                               -0.00**********      0.00
                               -0.00      0.001013205.09

     nonloc. stress (kbar)  17681.12     -0.00      0.00
                               -0.00  17681.11      0.00
                                0.00      0.00  17615.54

     hartree stress (kbar) 541689.86      0.00      0.00
                                0.00 541689.87     -0.00
                                0.00     -0.00-457697.14

     exc-cor stress (kbar) -11194.52      0.00      0.00
                                0.00 -11194.52     -0.00
                                0.00     -0.00 -11206.45

     corecor stress (kbar)  -2472.72     -0.00      0.00
                               -0.00  -2472.72     -0.00
                                0.00     -0.00  -2461.39

     ewald   stress (kbar) 421194.88     -0.02      0.00
                               -0.02 421194.85     -0.00
                                0.00     -0.00-599059.46

     hubbard stress (kbar)      0.00      0.00      0.00
                                0.00      0.00      0.00
                                0.00      0.00      0.00

     DFT-D   stress (kbar)      0.00      0.00      0.00
                                0.00      0.00      0.00
                                0.00      0.00      0.00

     XDM     stress (kbar)      0.00      0.00      0.00
                                0.00      0.00      0.00
                                0.00      0.00      0.00

     dft-nl  stress (kbar)      0.00      0.00      0.00
                                0.00      0.00      0.00
                                0.00      0.00      0.00

     TS-vdW  stress (kbar)      0.00      0.00      0.00
                                0.00      0.00      0.00
                                0.00      0.00      0.00

     MDB     stress (kbar)      0.00      0.00      0.00
                                0.00      0.00      0.00
                                0.00      0.00      0.00

     3D-RISM stress (kbar)      0.00      0.00      0.00
                                0.00      0.00      0.00
                                0.00      0.00      0.00

     Energy error            =      1.8E-05 Ry
     Gradient error          =      9.6E-04 Ry/Bohr

     bfgs converged in   4 scf cycles and   3 bfgs steps
     (criteria: energy <  1.6E-04 Ry, force <  1.5E-03 Ry/Bohr)

     End of BFGS Geometry Optimization

     Final energy             =   -3510.7403383878 Ry

     File ./out/ni3hnb.bfgs deleted, as requested
Begin final coordinates

ATOMIC_POSITIONS (crystal)
B               -0.0000000000       -0.0000000000        0.5962710873
B                0.0000000000        0.0000000000        0.4999998808
B               -0.0000000000       -0.0000000000        0.4037294194
N                0.3333329856        0.6666669845        0.5928170105
N                0.3333329856        0.6666669845        0.4999998808
N                0.3333329856        0.6666669845        0.4071834962
Ni              -0.0000000000       -0.0000000000        0.1242094799
Ni               0.3333329856        0.6666669845        0.1794315006
Ni               0.6666669843        0.3333329855        0.2364397255
Ni               0.0000000000        0.0000000000        0.2923015904
Ni               0.3333329856        0.6666669845        0.3482814932
Ni              -0.0000000000        0.0000000000        0.8757905052
Ni               0.3333329856        0.6666669845        0.8205684547
Ni               0.6666669843        0.3333329855        0.7635602447
Ni              -0.0000000000       -0.0000000000        0.7076983798
Ni               0.3333329856        0.6666669845        0.6517184770
End final coordinates

     Writing all to output data dir ./out/ni3hnb.save/ :
     XML data file, charge density, pseudopotentials, collected wavefunctions

     General routines

     Parallel routines

   This run was terminated on:  12:50: 9   4Sep2025

   JOB DONE.